NumberOfAtoms		18
LatticeConstant   1.0000000000	Bohr
%block LatticeVectors
  37.7945375550   0.0000000000   0.0000000000
   0.0000000000  37.7945375550   0.0000000000
   0.0000000000   0.0000000000  39.6842644320
%endblock LatticeVectors
AtomicCoordinatesFormat		NotScaledCartesianBohr
%block AtomicCoordinatesAndAtomicSpecies
   0.0000000000   0.0000000000 -11.3383612660     1     1
   0.0000000000   0.0000000000  -9.4486343880     1     2
   0.0000000000   0.0000000000  -7.5589075110     1     3
   0.0000000000   0.0000000000  -5.6691806330     1     4
   0.0000000000   0.0000000000  -3.7794537550     1     5
   0.0000000000   0.0000000000  -1.8897268770     1     6
   0.0000000000   0.0000000000   1.8897268780     1     7
   0.0000000000   0.0000000000   3.7794537560     1     8
   0.0000000000   0.0000000000   5.6691806330     1     9
   0.0000000000   0.0000000000   7.5589075110     1    10
   0.0000000000   0.0000000000   9.4486343890     1    11
   0.0000000000   0.0000000000  11.3383612670     1    12
   0.0000000000   0.0000000000  15.1178150220     1    13
   0.0000000000   0.0000000000  17.0075419000     1    14
   0.0000000000   0.0000000000  18.8972687770     1    15
   0.0000000000   0.0000000000  20.7869956550     1    16
   0.0000000000   0.0000000000  22.6767225330     1    17
   0.0000000000   0.0000000000  24.5664494110     1    18
%endblock AtomicCoordinatesAndAtomicSpecies
MD.TypeOfRun		FC
MD.FCfirst			7
MD.FClast			12
MD.FCdispl			0.0400000000	Bohr
